p cnf 49 216
1 2 3 4 8 0
2 1 3 4 9 16 23 30 37 44 0
3 2 1 4 10 17 0
4 3 2 1 11 0
6 7 13 20 27 34 41 48 0
7 6 14 21 28 0
8 9 10 11 12 13 14 1 0
9 8 10 11 12 13 14 16 23 30 37 44 2 0
10 9 8 11 12 13 14 17 3 0
11 10 9 8 12 13 14 4 0
12 11 10 9 8 13 14 19 0
13 12 11 10 9 8 14 20 27 34 41 48 6 0
14 13 12 11 10 9 8 21 28 7 0
16 17 23 30 37 44 9 2 0
17 16 10 3 0
19 20 21 12 0
20 19 21 27 34 41 48 13 6 0
21 20 19 28 14 7 0
22 23 29 36 43 0
23 22 30 37 44 16 9 2 0
25 0
27 28 34 41 48 20 13 6 0
28 27 21 14 7 0
29 30 31 36 43 22 0
30 29 31 37 44 23 16 9 2 0
31 30 29 38 0
33 34 40 47 0
34 33 41 48 27 20 13 6 0
36 37 38 39 40 41 42 43 29 22 0
37 36 38 39 40 41 42 44 30 23 16 9 2 0
38 37 36 39 40 41 42 31 0
39 38 37 36 40 41 42 46 0
40 39 38 37 36 41 42 47 33 0
41 40 39 38 37 36 42 48 34 27 20 13 6 0
42 41 40 39 38 37 36 49 0
43 44 36 29 22 0
44 43 37 30 23 16 9 2 0
46 47 48 49 39 0
47 46 48 49 40 33 0
48 47 46 49 41 34 27 20 13 6 0
49 48 47 46 42 0
-1 -2 0
-1 -3 0
-1 -4 0
-1 -8 0
-2 -3 0
-2 -4 0
-2 -9 0
-2 -16 0
-2 -23 0
-2 -30 0
-2 -37 0
-2 -44 0
-3 -4 0
-3 -10 0
-3 -17 0
-4 -11 0
-6 -7 0
-6 -13 0
-6 -20 0
-6 -27 0
-6 -34 0
-6 -41 0
-6 -48 0
-7 -14 0
-7 -21 0
-7 -28 0
-8 -9 0
-8 -10 0
-8 -11 0
-8 -12 0
-8 -13 0
-8 -14 0
-9 -10 0
-9 -11 0
-9 -12 0
-9 -13 0
-9 -14 0
-9 -16 0
-9 -23 0
-9 -30 0
-9 -37 0
-9 -44 0
-10 -11 0
-10 -12 0
-10 -13 0
-10 -14 0
-10 -17 0
-11 -12 0
-11 -13 0
-11 -14 0
-12 -13 0
-12 -14 0
-12 -19 0
-13 -14 0
-13 -20 0
-13 -27 0
-13 -34 0
-13 -41 0
-13 -48 0
-14 -21 0
-14 -28 0
-16 -17 0
-16 -23 0
-16 -30 0
-16 -37 0
-16 -44 0
-19 -20 0
-19 -21 0
-20 -21 0
-20 -27 0
-20 -34 0
-20 -41 0
-20 -48 0
-21 -28 0
-22 -23 0
-22 -29 0
-22 -36 0
-22 -43 0
-23 -30 0
-23 -37 0
-23 -44 0
-27 -28 0
-27 -34 0
-27 -41 0
-27 -48 0
-29 -30 0
-29 -31 0
-29 -36 0
-29 -43 0
-30 -31 0
-30 -37 0
-30 -44 0
-31 -38 0
-33 -34 0
-33 -40 0
-33 -47 0
-34 -41 0
-34 -48 0
-36 -37 0
-36 -38 0
-36 -39 0
-36 -40 0
-36 -41 0
-36 -42 0
-36 -43 0
-37 -38 0
-37 -39 0
-37 -40 0
-37 -41 0
-37 -42 0
-37 -44 0
-38 -39 0
-38 -40 0
-38 -41 0
-38 -42 0
-39 -40 0
-39 -41 0
-39 -42 0
-39 -46 0
-40 -41 0
-40 -42 0
-40 -47 0
-41 -42 0
-41 -48 0
-42 -49 0
-43 -44 0
-46 -47 0
-46 -48 0
-46 -49 0
-47 -48 0
-47 -49 0
-48 -49 0
8 22 16 0
-8 -22 0
-8 -16 0
-22 -16 0
11 25 17 19 0
-11 -25 0
-11 -17 0
-11 -19 0
-25 -17 0
-25 -19 0
-17 -19 0
-19 -33 -25 0
19 33 25 0
-19 -33 -27 0
19 33 27 0
-19 -25 -27 0
19 25 27 0
-33 -25 -27 0
33 25 27 0
-25 -39 -31 0
25 39 31 0
-25 -39 -33 0
25 39 33 0
-25 -31 -33 0
25 31 33 0
-39 -31 -33 0
39 31 33 0
-28 -42 -34 0
28 42 0
28 34 0
42 34 0
-38 -44 -46 0
38 44 0
38 46 0
44 46 0
-5 0
-15 0
-18 0
-24 0
-26 0
-32 0
-35 0
-45 0